ITEM = 1..40;
capacity1 = 380;
capacity2 = 380;
capacity3 = 380;
profits = [22, 69, 60, 22, 28, 26, 29, 52, 37, 36, 30, 55, 42, 41, 51, 62, 58, 97, 96, 25, 48, 20, 27, 36, 43, 87, 58, 37, 65, 29, 21, 20, 54, 56, 53, 38, 68, 26, 32, 45];
weights = [77, 83, 88, 15, 42, 19, 29, 59, 37, 38, 30, 73, 42, 85, 63, 59, 61, 91, 87, 64, 38, 64, 29, 52, 58, 96, 99, 56, 66, 92, 16, 25, 88, 57, 70, 34, 69, 50, 42, 39];
